43
25
0 1 44 87 130 173 216 259 302 345 388 431 474 517 560 603 646 689 732 775 818 861 904 947 990
25
0 2 45 88 131 174 217 260 303 346 389 432 475 518 561 604 647 690 733 776 819 862 905 948 991
25
0 3 46 89 132 175 218 261 304 347 390 433 476 519 562 605 648 691 734 777 820 863 906 949 992
25
0 4 47 90 133 176 219 262 305 348 391 434 477 520 563 606 649 692 735 778 821 864 907 950 993
25
0 5 48 91 134 177 220 263 306 349 392 435 478 521 564 607 650 693 736 779 822 865 908 951 994
25
0 6 49 92 135 178 221 264 307 350 393 436 479 522 565 608 651 694 737 780 823 866 909 952 995
25
0 7 50 93 136 179 222 265 308 351 394 437 480 523 566 609 652 695 738 781 824 867 910 953 996
25
0 8 51 94 137 180 223 266 309 352 395 438 481 524 567 610 653 696 739 782 825 868 911 954 997
25
0 9 52 95 138 181 224 267 310 353 396 439 482 525 568 611 654 697 740 783 826 869 912 955 998
25
0 10 53 96 139 182 225 268 311 354 397 440 483 526 569 612 655 698 741 784 827 870 913 956 999
25
0 11 54 97 140 183 226 269 312 355 398 441 484 527 570 613 656 699 742 785 828 871 914 957 1000
24
0 12 55 98 141 184 227 270 313 356 399 442 485 528 571 614 657 700 743 786 829 872 915 958
24
0 13 56 99 142 185 228 271 314 357 400 443 486 529 572 615 658 701 744 787 830 873 916 959
24
0 14 57 100 143 186 229 272 315 358 401 444 487 530 573 616 659 702 745 788 831 874 917 960
24
0 15 58 101 144 187 230 273 316 359 402 445 488 531 574 617 660 703 746 789 832 875 918 961
24
0 16 59 102 145 188 231 274 317 360 403 446 489 532 575 618 661 704 747 790 833 876 919 962
24
0 17 60 103 146 189 232 275 318 361 404 447 490 533 576 619 662 705 748 791 834 877 920 963
24
0 18 61 104 147 190 233 276 319 362 405 448 491 534 577 620 663 706 749 792 835 878 921 964
24
0 19 62 105 148 191 234 277 320 363 406 449 492 535 578 621 664 707 750 793 836 879 922 965
24
0 20 63 106 149 192 235 278 321 364 407 450 493 536 579 622 665 708 751 794 837 880 923 966
24
0 21 64 107 150 193 236 279 322 365 408 451 494 537 580 623 666 709 752 795 838 881 924 967
24
0 22 65 108 151 194 237 280 323 366 409 452 495 538 581 624 667 710 753 796 839 882 925 968
24
0 23 66 109 152 195 238 281 324 367 410 453 496 539 582 625 668 711 754 797 840 883 926 969
24
0 24 67 110 153 196 239 282 325 368 411 454 497 540 583 626 669 712 755 798 841 884 927 970
24
0 25 68 111 154 197 240 283 326 369 412 455 498 541 584 627 670 713 756 799 842 885 928 971
24
0 26 69 112 155 198 241 284 327 370 413 456 499 542 585 628 671 714 757 800 843 886 929 972
24
0 27 70 113 156 199 242 285 328 371 414 457 500 543 586 629 672 715 758 801 844 887 930 973
24
0 28 71 114 157 200 243 286 329 372 415 458 501 544 587 630 673 716 759 802 845 888 931 974
24
0 29 72 115 158 201 244 287 330 373 416 459 502 545 588 631 674 717 760 803 846 889 932 975
24
0 30 73 116 159 202 245 288 331 374 417 460 503 546 589 632 675 718 761 804 847 890 933 976
24
0 31 74 117 160 203 246 289 332 375 418 461 504 547 590 633 676 719 762 805 848 891 934 977
24
0 32 75 118 161 204 247 290 333 376 419 462 505 548 591 634 677 720 763 806 849 892 935 978
24
0 33 76 119 162 205 248 291 334 377 420 463 506 549 592 635 678 721 764 807 850 893 936 979
24
0 34 77 120 163 206 249 292 335 378 421 464 507 550 593 636 679 722 765 808 851 894 937 980
24
0 35 78 121 164 207 250 293 336 379 422 465 508 551 594 637 680 723 766 809 852 895 938 981
24
0 36 79 122 165 208 251 294 337 380 423 466 509 552 595 638 681 724 767 810 853 896 939 982
24
0 37 80 123 166 209 252 295 338 381 424 467 510 553 596 639 682 725 768 811 854 897 940 983
24
0 38 81 124 167 210 253 296 339 382 425 468 511 554 597 640 683 726 769 812 855 898 941 984
24
0 39 82 125 168 211 254 297 340 383 426 469 512 555 598 641 684 727 770 813 856 899 942 985
24
0 40 83 126 169 212 255 298 341 384 427 470 513 556 599 642 685 728 771 814 857 900 943 986
24
0 41 84 127 170 213 256 299 342 385 428 471 514 557 600 643 686 729 772 815 858 901 944 987
24
0 42 85 128 171 214 257 300 343 386 429 472 515 558 601 644 687 730 773 816 859 902 945 988
24
0 43 86 129 172 215 258 301 344 387 430 473 516 559 602 645 688 731 774 817 860 903 946 989
